(set-option :produce-models true)
(set-logic QF_UF)
(declare-fun p46() Bool)
(declare-fun p65() Bool)
(declare-fun p55() Bool)
(declare-fun p58() Bool)
(declare-fun p40() Bool)
(declare-fun p49() Bool)
(declare-fun p10() Bool)
(declare-fun p14() Bool)
(declare-fun p16() Bool)
(declare-fun p1() Bool)
(declare-fun p69() Bool)
(declare-fun p15() Bool)
(declare-fun p19() Bool)
(declare-fun p66() Bool)
(declare-fun p8() Bool)
(declare-fun p2() Bool)
(declare-fun p67() Bool)
(declare-fun p31() Bool)
(declare-fun p59() Bool)
(declare-fun p34() Bool)
(declare-fun p23() Bool)
(declare-fun p52() Bool)
(declare-fun p17() Bool)
(declare-fun p11() Bool)
(declare-fun p36() Bool)
(declare-fun p61() Bool)
(declare-fun p3() Bool)
(declare-fun p13() Bool)
(declare-fun p37() Bool)
(declare-fun p25() Bool)
(declare-fun p60() Bool)
(declare-fun p44() Bool)
(declare-fun p22() Bool)
(declare-fun p28() Bool)
(declare-fun p24() Bool)
(declare-fun p45() Bool)
(declare-fun p56() Bool)
(declare-fun p64() Bool)
(declare-fun p21() Bool)
(declare-fun p48() Bool)
(declare-fun p47() Bool)
(declare-fun p6() Bool)
(declare-fun p38() Bool)
(declare-fun p41() Bool)
(declare-fun p30() Bool)
(declare-fun p33() Bool)
(declare-fun p42() Bool)
(declare-fun p39() Bool)
(declare-fun p62() Bool)
(declare-fun p63() Bool)
(declare-fun p29() Bool)
(declare-fun p9() Bool)
(declare-fun p18() Bool)
(declare-fun p53() Bool)
(declare-fun p57() Bool)
(declare-fun p27() Bool)
(declare-fun p0() Bool)
(declare-fun p51() Bool)
(declare-fun p50() Bool)
(declare-fun p12() Bool)
(declare-fun p4() Bool)
(declare-fun p54() Bool)
(declare-fun p26() Bool)
(declare-fun p5() Bool)
(declare-fun p43() Bool)
(declare-fun p35() Bool)
(declare-fun p7() Bool)
(declare-fun p68() Bool)
(declare-fun p32() Bool)
(declare-fun p20() Bool)
(assert
(and (or (not p46) (not p65) (not p55)) (or (not p58) (not p40) (not p49)) (or (not p10) p14 (not p16)) (or p46 (not p1) p69) (or (not p15) p19 p66) (or (not p8) p2 p67) (or p66 (not p31) (not p59)) (or p34 p23 (not p52)) (or p17 p11 p36) (or p61 (not p3) (not p13)) (or p37 (not p25) (not p60)) (or (not p17) (not p11) p34) (or p44 (not p25) (not p22)) (or p15 (not p28) p24) (or p22 p45 (not p11)) (or p56 (not p64) (not p21)) (or p21 p48 p47) (or (not p13) p6 (not p24)) (or (not p48) p38 p65) (or p8 p6 (not p65)) (or p41 (not p40) (not p3)) (or p30 p67 p33) (or (not p23) (not p42) (not p39)) (or p45 (not p62) p31) (or p63 p33 (not p29)) (or p9 (not p18) p67) (or p39 (not p31) p10) (or (not p67) p66 (not p56)) (or (not p53) (not p3) p57) (or p14 (not p59) (not p27)) (or (not p53) (not p13) p0) (or (not p28) (not p44) (not p40)) (or (not p61) (not p60) p61) (or p48 p22 (not p14)) (or (not p38) (not p34) (not p61)) (or p0 (not p47) p62) (or (not p51) p25 p51) (or p55 (not p38) (not p45)) (or p48 (not p49) p9) (or (not p60) p25 (not p56)) (or (not p65) p50 (not p27)) (or (not p12) p4 p11) (or (not p10) (not p67) (not p15)) (or (not p8) (not p34) (not p28)) (or p8 p54 p31) (or p46 (not p39) p55) (or (not p61) (not p61) p26) (or (not p62) p53 p15) (or (not p1) (not p59) (not p47)) (or (not p59) (not p60) (not p8)) (or p27 (not p24) p69) (or (not p3) (not p48) p41) (or p2 p60 p52) (or p27 (not p31) (not p14)) (or (not p69) (not p53) (not p8)) (or (not p5) p65 (not p69)) (or p46 (not p51) p14) (or (not p46) p22 (not p2)) (or p63 p30 (not p36)) (or (not p27) (not p6) (not p67)) (or (not p14) p29 (not p31)) (or (not p22) (not p0) p27) (or (not p2) p61 (not p27)) (or p44 (not p12) p43) (or p64 p39 (not p26)) (or p60 p35 p44) (or (not p7) (not p68) p65) (or (not p69) (not p48) p64) (or p0 (not p61) p8) (or p15 p68 (not p37)) (or (not p60) p47 (not p37)) (or (not p6) (not p37) (not p39)) (or p15 p12 p44) (or (not p29) (not p23) p54) (or (not p67) p21 p27) (or (not p21) (not p8) (not p54)) (or p21 (not p44) (not p64)) (or (not p14) (not p59) (not p11)) (or p38 (not p56) p35) (or (not p58) (not p9) (not p2)) (or (not p53) p3 p49) (or p65 (not p5) p15) (or p31 (not p25) p22) (or (not p17) (not p63) p51) (or p6 p50 (not p30)) (or p68 (not p51) (not p2)) (or p13 (not p24) p63) (or p44 (not p27) (not p40)) (or (not p57) p6 (not p27)) (or p50 (not p68) p22) (or p38 (not p69) p24) (or (not p37) (not p22) p28) (or p9 (not p13) (not p49)) (or p49 (not p29) p47) (or p67 (not p56) p2) (or p68 p46 (not p36)) (or (not p39) (not p10) p31) (or p30 (not p41) p10) (or p39 p40 (not p36)) (or p49 (not p56) (not p17)) (or (not p34) (not p66) p2) (or (not p1) (not p43) (not p17)) (or (not p12) p59 p54) (or p38 (not p46) (not p19)) (or p61 (not p45) (not p55)) (or (not p5) (not p7) (not p63)) (or p65 (not p51) p39) (or p17 (not p5) p47) (or (not p28) p68 p55) (or p36 (not p65) p46) (or (not p17) p7 (not p33)) (or (not p59) (not p69) (not p32)) (or (not p53) (not p10) (not p23)) (or (not p29) (not p63) p46) (or p59 (not p33) (not p12)) (or (not p47) p51 (not p9)) (or (not p2) p28 p18) (or (not p68) (not p11) (not p50)) (or (not p58) (not p50) (not p3)) (or p36 (not p53) (not p19)) (or p20 (not p1) (not p13)) (or (not p7) (not p64) (not p64)) (or p58 p16 p31) (or (not p62) p60 (not p43)) (or p33 (not p38) p22) (or p30 (not p7) (not p25)) (or (not p46) p56 (not p27)) (or (not p61) p9 (not p0)) (or (not p67) (not p38) p58) (or p50 (not p68) (not p38)) (or (not p29) (not p46) (not p50)) (or p21 p11 (not p16)) (or p32 (not p41) p7) (or p55 p51 p56) (or (not p32) p5 (not p6)) (or p0 (not p17) (not p17)) (or p31 p6 (not p11)) (or p52 p52 p0) (or p27 (not p55) p66) (or (not p12) (not p65) p3) (or p39 (not p25) (not p16)) (or (not p0) p37 p16) (or (not p13) (not p21) p47) (or (not p3) p25 p68) (or p65 p30 (not p40)) (or p67 (not p66) (not p20)) (or (not p34) (not p62) (not p19)) (or (not p51) p56 p33) (or (not p14) (not p47) p19) (or p42 p7 p64) (or p52 p46 (not p39)) (or (not p15) p65 (not p0)) (or p69 p58 (not p2)) (or p38 p15 (not p6)) (or (not p38) (not p68) p63) (or p1 (not p52) p51) (or (not p53) (not p8) p14) (or p8 p29 (not p57)) (or (not p42) p30 p39) (or (not p33) p33 p38) (or (not p57) (not p9) (not p45)) (or (not p14) (not p31) (not p69)) (or p52 p10 p65) (or (not p24) p51 (not p16)) (or p1 (not p41) (not p59)) (or p16 (not p63) p42) (or (not p2) p69 (not p44)) (or p62 (not p36) p22) (or (not p14) p25 p20) (or p36 p11 (not p55)) (or (not p18) (not p6) p20) (or (not p8) (not p0) p66) (or (not p28) p60 p32) (or (not p67) p44 p63) (or (not p33) p2 p28) (or p32 (not p19) p53) (or (not p5) (not p18) p41) (or (not p14) (not p1) (not p0)) (or p12 (not p16) p32) (or p45 p8 p48) (or p44 p41 p35) (or (not p66) p58 p17) (or (not p23) p10 (not p28)) (or p66 p37 p12) (or (not p4) p19 p38) (or (not p31) (not p3) (not p63)) (or (not p20) (not p17) p57) (or (not p28) (not p58) p44) (or p3 (not p66) p47) (or (not p31) (not p25) p40) (or p58 p45 (not p45)) (or p38 (not p36) (not p38)) (or (not p19) p39 p23) (or (not p11) (not p54) p54) (or p33 (not p25) (not p45)) (or (not p55) p50 (not p40)) (or (not p1) p7 (not p59)) (or p67 p56 p16) (or p4 (not p37) p32) (or p56 (not p10) (not p52)) (or (not p18) (not p27) p22) (or p22 (not p16) (not p22)) (or (not p19) (not p9) p18) (or (not p17) (not p32) (not p29)) (or p36 p65 p58) (or p2 p31 p28) (or (not p39) p56 p7) (or p36 (not p10) (not p37)) (or (not p22) p66 p58) (or p65 p34 p61) (or (not p16) p53 p67) (or (not p9) p52 p39) (or p12 (not p69) (not p38)) (or (not p7) (not p30) (not p57)) (or p57 (not p40) (not p45)) (or (not p49) p3 p24) (or (not p57) (not p44) (not p30)) (or p33 p22 p16) (or (not p35) (not p14) (not p9)) (or p32 p38 (not p4)) (or p7 (not p34) p35) (or p18 (not p25) (not p22)) (or (not p6) (not p37) (not p24)) (or p5 (not p49) (not p43)) (or (not p67) p5 p1) (or p10 p7 p31) (or p23 p20 (not p13)) (or p43 p29 (not p28)) (or p66 (not p8) p62) (or (not p23) (not p50) p22) (or p36 p36 p23) (or (not p51) p58 (not p20)) (or p52 p50 p54) (or p3 p18 p8) (or (not p5) p36 (not p63)) (or p22 p22 (not p10)) (or p24 p46 (not p36)) (or p11 (not p50) p39) (or p66 (not p61) (not p28)) (or (not p20) p10 p7) (or (not p25) (not p9) (not p36)) (or (not p8) (not p17) (not p53)) (or p56 (not p23) p31) (or p13 (not p54) (not p5)) (or (not p44) p64 (not p3)) (or p21 p13 p44) (or (not p10) (not p45) p65) (or (not p16) p10 p14) (or (not p68) p6 p61) (or p60 p49 p6) (or p13 (not p27) p12) (or (not p18) p31 p51) (or (not p22) (not p55) p33) (or p46 (not p30) (not p11)) (or p64 p37 (not p41)) (or p64 p52 (not p55)) (or (not p10) p29 (not p35)) (or p35 p1 (not p34)) (or (not p47) (not p53) (not p37)) (or p58 (not p28) (not p0)) (or (not p57) p43 (not p60)) (or p31 (not p24) p36) (or (not p36) (not p50) (not p43)) (or p14 (not p11) p69) (or p41 p64 p7) (or p23 p1 p30) (or (not p65) (not p51) (not p5)) (or (not p4) p38 (not p32)) (or p40 (not p62) (not p58)) (or (not p8) p7 (not p26)) (or p67 p17 (not p68)) (or (not p56) p37 (not p0)) (or (not p12) (not p8) p51) (or (not p44) (not p43) p39) (or p63 p44 p52) (or p25 (not p8) (not p51)) (or (not p22) (not p69) (not p32)) (or (not p46) (not p56) p18) (or p27 (not p42) (not p49)) (or (not p63) (not p10) (not p5)) (or p5 p35 (not p13)) (or (not p3) p40 p34) (or (not p39) p32 (not p36)) (or (not p28) (not p3) p35) (or (not p55) p64 (not p2)) (or p44 (not p0) p11) (or p18 (not p45) p63) (or (not p43) (not p38) p41) (or (not p61) (not p2) (not p7)) (or p21 (not p20) p1) (or p16 p56 p68) (or (not p24) (not p51) p38) (or p13 (not p45) (not p51)) (or (not p59) (not p31) (not p40)) (or (not p46) (not p8) (not p27)) (or (not p13) p54 (not p56)) (or (not p53) p67 (not p32)))
)
(check-sat)
(get-model)
